letting n be 12
letting exclusions be [
]
letting assignments be [
[5, 3, 1, 4]
,
[4, 4, 2, 5]
,
[1, 6, 1, 1]
,
[7, 6, 2, 12]
,
[6, 5, 2, 7]
,
[6, 1, 1, 6]
,
[9, 2, 2, 7]
,
[11, 5, 2, 7]
,
[6, 1, 2, 11]
,
[5, 1, 1, 11]
]
